MARKOV
10
2 2 2 2 2 2 2 2 2 2
45
2 1 0
2 2 0
2 2 1
2 3 0
2 3 1
2 3 2
2 4 0
2 4 1
2 4 2
2 4 3
2 5 0
2 5 1
2 5 2
2 5 3
2 5 4
2 6 0
2 6 1
2 6 2
2 6 3
2 6 4
2 6 5
2 7 0
2 7 1
2 7 2
2 7 3
2 7 4
2 7 5
2 7 6
2 8 0
2 8 1
2 8 2
2 8 3
2 8 4
2 8 5
2 8 6
2 8 7
2 9 0
2 9 1
2 9 2
2 9 3
2 9 4
2 9 5
2 9 6
2 9 7
2 9 8
4
1
0.506026334357
0.506026334357
1

4
1
0.643189361967
0.643189361967
1

4
1
0.552698762662
0.552698762662
1

4
1
0.854843579653
0.854843579653
1

4
1
0.390226033418
0.390226033418
1

4
1
0.565396226484
0.565396226484
1

4
1
0.524116353308
0.524116353308
1

4
1
0.841717804209
0.841717804209
1

4
1
0.449421161914
0.449421161914
1

4
1
0.422570937173
0.422570937173
1

4
1
0.41830574674
0.41830574674
1

4
1
0.93400533798
0.93400533798
1

4
1
0.602102923163
0.602102923163
1

4
1
0.552420633643
0.552420633643
1

4
1
0.528779425927
0.528779425927
1

4
1
0.490704667585
0.490704667585
1

4
1
0.677374379464
0.677374379464
1

4
1
0.566652235237
0.566652235237
1

4
1
0.682610447753
0.682610447753
1

4
1
0.688661281373
0.688661281373
1

4
1
0.752201764625
0.752201764625
1

4
1
0.675089870987
0.675089870987
1

4
1
0.380653040011
0.380653040011
1

4
1
0.430904245748
0.430904245748
1

4
1
0.652460095241
0.652460095241
1

4
1
0.994181469383
0.994181469383
1

4
1
0.52096372477
0.52096372477
1

4
1
0.483191935656
0.483191935656
1

4
1
0.540939455259
0.540939455259
1

4
1
0.431740934308
0.431740934308
1

4
1
0.620703540442
0.620703540442
1

4
1
0.716958667765
0.716958667765
1

4
1
0.510602273745
0.510602273745
1

4
1
0.467530985565
0.467530985565
1

4
1
0.677860380812
0.677860380812
1

4
1
0.507489038193
0.507489038193
1

4
1
0.37900811532
0.37900811532
1

4
1
0.890813946821
0.890813946821
1

4
1
0.781797648348
0.781797648348
1

4
1
0.573885815193
0.573885815193
1

4
1
0.403420077918
0.403420077918
1

4
1
0.481162469611
0.481162469611
1

4
1
0.414373026153
0.414373026153
1

4
1
0.708844192854
0.708844192854
1

4
1
0.517966960098
0.517966960098
1

